N = 10;
Dist = [|0, 395, 391, 611, 480, 542, 258, 995, 567, 882
| 395, 0, 966, 12, 697, 739, 118, 699, 907, 550
| 391, 966, 0, 769, 274, 788, 657, 349, 115, 301
| 611, 12, 769, 0, 446, 162, 465, 4, 977, 740
| 480, 697, 274, 446, 0, 897, 737, 270, 996, 513
| 542, 739, 788, 162, 897, 0, 781, 183, 520, 935
| 258, 118, 657, 465, 737, 781, 0, 109, 892, 641
| 995, 699, 349, 4, 270, 183, 109, 0, 306, 862
| 567, 907, 115, 977, 996, 520, 892, 306, 0, 655
| 882, 550, 301, 740, 513, 935, 641, 862, 655, 0 |];